/* Objective function */
min: - 0.0054fpdi - 0.0054fpdo + 0.05apdi + 0.05apdo + 0.0002pi + 0.0002po - 0.5fsi - 0.5fso;

apdi = 0.0 hi + -0.0 li + 10.65754 ri + -0.00655 ci + -1.50989 si + 0.0 ti + 0.12007 fTempIi + 0.00537 ami + -120.61947;
asi = 0.0 hi + -0.0 li + 0.0 ri + -0.0 ci + 0.0 si + -0.0 ti + -0.0 fTempIi + 6e-05 ami + -0.02;
aTempOi = 0.0 hi + 0.0 li + 0.30958 ri + -0.04182 ci + -0.04045 si + -0.0 ti + 0.76079 fTempIi + -0.00018 ami + 6.90222;
fpdi = 0.0 hi + -0.0 li + 7.72919 ri + -7.38473 ci + -0.01352 si + -0.0 ti + -0.43237 fTempIi + 5e-05 ami + 217.14868;
fsi = 0.0 hi + -0.0 li + -4e-05 ri + -0.03493 ci + 1e-05 si + -0.0 ti + 8e-05 fTempIi + -0.0 ami + 1.94712;
fTempOi = 0.0 hi + 0.0 li + -0.3055 ri + 0.04176 ci + 0.03984 si + -0.0 ti + 0.25806 fTempIi + -0.00015 ami + 9.35091;
pi = 0.0 hi + -0.0 li + 442.85 ri + 3.1125 ci + -45.68533 si + 0.0 ti + -0.0 fTempIi + -0.0 ami + 2313.09;

apdo = 0.0 ho + 0.0 lo + 12.86481 ro + 0.0004 co + -1.93596 so + 0.0 to + 0.11247 fTempIo + 0.00636 amo + -159.12734;
aso = 0.0 ho + 0.0 lo + -6e-05 ro + -0.0001 co + -2e-05 so + -0.0 to + -0.00011 fTempIo + 6e-05 amo + -0.0148;
aTempOo = 0.0 ho + -0.0 lo + -0.30517 ro + 0.04457 co + 0.06071 so + -0.0 to + 0.7629 fTempIo + 0.00019 amo + -0.61173;
fpdo = 0.0 ho + 0.0 lo + 25.783 ro + -39.25821 co + 0.06487 so + -0.0 to + -1.38517 fTempIo + -0.0002 amo + 729.71018;
fso = 0.0 ho + 0.0 lo + 0.00016 ro + -0.08423 co + -3e-05 so + -0.0 to + 0.00068 fTempIo + 0.0 amo + 3.0285;
fTempOo = 0.0 ho + 0.0 lo + 0.30094 ro + -0.04194 co + -0.06002 so + -0.0 to + 0.24863 fTempIo + 0.00017 amo + 12.53277;
po = 0.0 ho + 0.0 lo + 349.42778 ro + 3.13333 co + -30.92952 so + 0.0 to + 0.0 fTempIo + 0.0 amo + 1235.9127;

/* Variable bounds */
aTempOi > 18.6;
1 =r6i + r8i + r10i + r12i + r14i;
ri =6r6i + 8r8i + 10r10i + 12r12i + 14r14i;
1 =s30i + s40i + s50i + s60i;
si =30s30i + 40s40i + 50s50i + 60s60i;
ti = 3;
apdi > 100;
apdi < 300;
asi > 0;
asi < 3;
aTempOi > 5;
aTempOi < 25;
fpdi > 100;
fpdi < 300;
fsi > 0;
fsi < 1.25;
fTempOi > 5;
fTempOi < 25;
pi > 0;
ri > 6;
ri < 14;
ci > 26;
ci < 60;
si > 25;
si < 60;
ti > 1;
ti < 3;
fTempIi > 5;
fTempIi < 25;

/* aTempOo < 11.4; */
1 =r6o + r8o + r10o + r12o + r14o;
ro =6r6o + 8r8o + 10r10o + 12r12o + 14r14o;
1 =s25o + s30o + s40o;
so =25s25o + 30s30o + 40s40o;
to = 2;
apdo > 100;
apdo < 300;
aso > 0;
aso < 3;
aTempOo > 5;
aTempOo < 25;
fpdo > 100;
fpdo < 300;
fso > 0;
fso < 1.25;
fTempOo > 5;
fTempOo < 25;
po > 0;
ro > 6;
ro < 14;
co > 1;
co < 22;
so > 25;
so < 60;
to > 1;
to < 3;
fTempIo > 5;
fTempIo < 25;
int hi,li,si,ti,ci,ri,ami;
int ho,lo,so,to,co,ro,amo;
bin s25i,s30i,s40i,s50i,s60i,r6i,r8i,r10i,r12i,r14i;
bin s25o,s30o,s40o,s50o,s60o,r6o,r8o,r10o,r12o,r14o;
